\Problem: SelectionSort
Minimize
 obj: x1 + x2 + x3 + x4 + x5
Subject To
 ordering1: x1 - x2 <= 0
 ordering2: x2 - x3 <= 0
 ordering3: x3 - x4 <= 0
 ordering4: x4 - x5 <= 0
Bounds
 1 <= x1 <= 5
 1 <= x2 <= 5
 1 <= x3 <= 5
 1 <= x4 <= 5
 1 <= x5 <= 5
General
 x1 x2 x3 x4 x5
End
